(declare-const i Int)
(declare-const term_to_project_onto Real)
(declare-const |i'| Int)
(assert (and (<= (- i) 0) (<= (+ i -102399) 0) (= (+ |i'| (- i) -1) 0)
               (= term_to_project_onto (+ |i'| (- i)))))
(check-sat)
